\ENCODING=ISO-8859-1
\Problem name: 

Minimize
 obj: 31.7407624357072 X_0_1_0 + 31.7407624357072 X_0_1_1
      + 61.0799222330874 X_0_2_0 + 61.0799222330874 X_0_2_1
      + 50.5323708131728 X_0_3_0 + 50.5323708131728 X_0_3_1
      + 41.2352822228732 X_0_4_0 + 41.2352822228732 X_0_4_1
      + 20.0936855753244 X_0_5_0 + 20.0936855753244 X_0_5_1
      + 37.1336410819085 X_0_6_0 + 37.1336410819085 X_0_6_1
      + 6.39413794033254 X_0_7_0 + 6.39413794033254 X_0_7_1
      + 40.6654115926545 X_0_8_0 + 40.6654115926545 X_0_8_1
      + 14.581635710715 X_0_9_0 + 14.581635710715 X_0_9_1
      + 31.7407624357072 X_1_0_0 + 31.7407624357072 X_1_0_1
      + 36.7819153933016 X_1_2_0 + 36.7819153933016 X_1_2_1 + 19.25 X_1_3_0
      + 19.25 X_1_3_1 + 24.0459913499111 X_1_4_0 + 24.0459913499111 X_1_4_1
      + 31.7586681080929 X_1_5_0 + 31.7586681080929 X_1_5_1
      + 48.342905374005 X_1_6_0 + 48.342905374005 X_1_6_1
      + 37.6610488435997 X_1_7_0 + 37.6610488435997 X_1_7_1
      + 19.0240085155574 X_1_8_0 + 19.0240085155574 X_1_8_1
      + 33.9522797467269 X_1_9_0 + 33.9522797467269 X_1_9_1
      + 61.0799222330874 X_2_0_0 + 61.0799222330874 X_2_0_1
      + 36.7819153933016 X_2_1_0 + 36.7819153933016 X_2_1_1
      + 24.710758790454 X_2_3_0 + 24.710758790454 X_2_3_1
      + 20.6143445202606 X_2_4_0 + 20.6143445202606 X_2_4_1
      + 48.1915936652857 X_2_5_0 + 48.1915936652857 X_2_5_1
      + 53.0611006293688 X_2_6_0 + 53.0611006293688 X_2_6_1
      + 67.4529265488163 X_2_7_0 + 67.4529265488163 X_2_7_1
      + 20.4989999756086 X_2_8_0 + 20.4989999756086 X_2_8_1
      + 54.4428654646318 X_2_9_0 + 54.4428654646318 X_2_9_1
      + 50.5323708131728 X_3_0_0 + 50.5323708131728 X_3_0_1 + 19.25 X_3_1_0
      + 19.25 X_3_1_1 + 24.710758790454 X_3_2_0 + 24.710758790454 X_3_2_1
      + 25.0907472985561 X_3_4_0 + 25.0907472985561 X_3_4_1
      + 46.0340102532899 X_3_5_0 + 46.0340102532899 X_3_5_1
      + 58.8523610401486 X_3_6_0 + 58.8523610401486 X_3_6_1
      + 56.6384966255285 X_3_7_0 + 56.6384966255285 X_3_7_1
      + 19.2886961715923 X_3_8_0 + 19.2886961715923 X_3_8_1
      + 50.0646701776812 X_3_9_0 + 50.0646701776812 X_3_9_1
      + 41.2352822228732 X_4_0_0 + 41.2352822228732 X_4_0_1
      + 24.0459913499111 X_4_1_0 + 24.0459913499111 X_4_1_1
      + 20.6143445202606 X_4_2_0 + 20.6143445202606 X_4_2_1
      + 25.0907472985561 X_4_3_0 + 25.0907472985561 X_4_3_1
      + 27.6445094006025 X_4_5_0 + 27.6445094006025 X_4_5_1
      + 35.3087241344119 X_4_6_0 + 35.3087241344119 X_4_6_1
      + 47.5225262375644 X_4_7_0 + 47.5225262375644 X_4_7_1
      + 6.10450653206302 X_4_8_0 + 6.10450653206302 X_4_8_1
      + 33.8285678088801 X_4_9_0 + 33.8285678088801 X_4_9_1
      + 20.0936855753244 X_5_0_0 + 20.0936855753244 X_5_0_1
      + 31.7586681080929 X_5_1_0 + 31.7586681080929 X_5_1_1
      + 48.1915936652857 X_5_2_0 + 48.1915936652857 X_5_2_1
      + 46.0340102532899 X_5_3_0 + 46.0340102532899 X_5_3_1
      + 27.6445094006025 X_5_4_0 + 27.6445094006025 X_5_4_1
      + 18.8969971159441 X_5_6_0 + 18.8969971159441 X_5_6_1
      + 24.8766718031171 X_5_7_0 + 24.8766718031171 X_5_7_1
      + 29.882290742177 X_5_8_0 + 29.882290742177 X_5_8_1
      + 6.95385504594394 X_5_9_0 + 6.95385504594394 X_5_9_1
      + 37.1336410819085 X_6_0_0 + 37.1336410819085 X_6_0_1
      + 48.342905374005 X_6_1_0 + 48.342905374005 X_6_1_1
      + 53.0611006293688 X_6_2_0 + 53.0611006293688 X_6_2_1
      + 58.8523610401486 X_6_3_0 + 58.8523610401486 X_6_3_1
      + 35.3087241344119 X_6_4_0 + 35.3087241344119 X_6_4_1
      + 18.8969971159441 X_6_5_0 + 18.8969971159441 X_6_5_1
      + 40.3002344906329 X_6_7_0 + 40.3002344906329 X_6_7_1
      + 40.0426897198477 X_6_8_0 + 40.0426897198477 X_6_8_1
      + 22.5842865727479 X_6_9_0 + 22.5842865727479 X_6_9_1
      + 6.39413794033254 X_7_0_0 + 6.39413794033254 X_7_0_1
      + 37.6610488435997 X_7_1_0 + 37.6610488435997 X_7_1_1
      + 67.4529265488163 X_7_2_0 + 67.4529265488163 X_7_2_1
      + 56.6384966255285 X_7_3_0 + 56.6384966255285 X_7_3_1
      + 47.5225262375644 X_7_4_0 + 47.5225262375644 X_7_4_1
      + 24.8766718031171 X_7_5_0 + 24.8766718031171 X_7_5_1
      + 40.3002344906329 X_7_6_0 + 40.3002344906329 X_7_6_1
      + 47.0531412341408 X_7_8_0 + 47.0531412341408 X_7_8_1
      + 18.503007863588 X_7_9_0 + 18.503007863588 X_7_9_1
      + 40.6654115926545 X_8_0_0 + 40.6654115926545 X_8_0_1
      + 19.0240085155574 X_8_1_0 + 19.0240085155574 X_8_1_1
      + 20.4989999756086 X_8_2_0 + 20.4989999756086 X_8_2_1
      + 19.2886961715923 X_8_3_0 + 19.2886961715923 X_8_3_1
      + 6.10450653206302 X_8_4_0 + 6.10450653206302 X_8_4_1
      + 29.882290742177 X_8_5_0 + 29.882290742177 X_8_5_1
      + 40.0426897198477 X_8_6_0 + 40.0426897198477 X_8_6_1
      + 47.0531412341408 X_8_7_0 + 47.0531412341408 X_8_7_1
      + 35.3789909409525 X_8_9_0 + 35.3789909409525 X_8_9_1
      + 14.581635710715 X_9_0_0 + 14.581635710715 X_9_0_1
      + 33.9522797467269 X_9_1_0 + 33.9522797467269 X_9_1_1
      + 54.4428654646318 X_9_2_0 + 54.4428654646318 X_9_2_1
      + 50.0646701776812 X_9_3_0 + 50.0646701776812 X_9_3_1
      + 33.8285678088801 X_9_4_0 + 33.8285678088801 X_9_4_1
      + 6.95385504594394 X_9_5_0 + 6.95385504594394 X_9_5_1
      + 22.5842865727479 X_9_6_0 + 22.5842865727479 X_9_6_1
      + 18.503007863588 X_9_7_0 + 18.503007863588 X_9_7_1
      + 35.3789909409525 X_9_8_0 + 35.3789909409525 X_9_8_1 + 200 N_8 + 200 N_9
Subject To
 c1:   X_0_0_0 + X_0_0_1 + X_1_1_0 + X_1_1_1 + X_2_2_0 + X_2_2_1 + X_3_3_0
       + X_3_3_1 + X_4_4_0 + X_4_4_1 + X_5_5_0 + X_5_5_1 + X_6_6_0 + X_6_6_1
       + X_7_7_0 + X_7_7_1 + X_8_8_0 + X_8_8_1 + X_9_9_0 + X_9_9_1  = 0
 c2:   X_0_0_0 + X_0_0_1 + X_0_1_0 + X_0_1_1 + X_0_2_0 + X_0_2_1 + X_0_3_0
       + X_0_3_1 + X_0_4_0 + X_0_4_1 + X_0_5_0 + X_0_5_1 + X_0_6_0 + X_0_6_1
       + X_0_7_0 + X_0_7_1 + X_0_8_0 + X_0_8_1 + X_0_9_0 + X_0_9_1  = 1
 c3:   X_1_0_0 + X_1_0_1 + X_1_1_0 + X_1_1_1 + X_1_2_0 + X_1_2_1 + X_1_3_0
       + X_1_3_1 + X_1_4_0 + X_1_4_1 + X_1_5_0 + X_1_5_1 + X_1_6_0 + X_1_6_1
       + X_1_7_0 + X_1_7_1 + X_1_8_0 + X_1_8_1 + X_1_9_0 + X_1_9_1  = 1
 c4:   X_2_0_0 + X_2_0_1 + X_2_1_0 + X_2_1_1 + X_2_2_0 + X_2_2_1 + X_2_3_0
       + X_2_3_1 + X_2_4_0 + X_2_4_1 + X_2_5_0 + X_2_5_1 + X_2_6_0 + X_2_6_1
       + X_2_7_0 + X_2_7_1 + X_2_8_0 + X_2_8_1 + X_2_9_0 + X_2_9_1  = 1
 c5:   X_3_0_0 + X_3_0_1 + X_3_1_0 + X_3_1_1 + X_3_2_0 + X_3_2_1 + X_3_3_0
       + X_3_3_1 + X_3_4_0 + X_3_4_1 + X_3_5_0 + X_3_5_1 + X_3_6_0 + X_3_6_1
       + X_3_7_0 + X_3_7_1 + X_3_8_0 + X_3_8_1 + X_3_9_0 + X_3_9_1  = 1
 c6:   X_4_0_0 + X_4_0_1 + X_4_1_0 + X_4_1_1 + X_4_2_0 + X_4_2_1 + X_4_3_0
       + X_4_3_1 + X_4_4_0 + X_4_4_1 + X_4_5_0 + X_4_5_1 + X_4_6_0 + X_4_6_1
       + X_4_7_0 + X_4_7_1 + X_4_8_0 + X_4_8_1 + X_4_9_0 + X_4_9_1  = 1
 c7:   X_5_0_0 + X_5_0_1 + X_5_1_0 + X_5_1_1 + X_5_2_0 + X_5_2_1 + X_5_3_0
       + X_5_3_1 + X_5_4_0 + X_5_4_1 + X_5_5_0 + X_5_5_1 + X_5_6_0 + X_5_6_1
       + X_5_7_0 + X_5_7_1 + X_5_8_0 + X_5_8_1 + X_5_9_0 + X_5_9_1  = 1
 c8:   X_6_0_0 + X_6_0_1 + X_6_1_0 + X_6_1_1 + X_6_2_0 + X_6_2_1 + X_6_3_0
       + X_6_3_1 + X_6_4_0 + X_6_4_1 + X_6_5_0 + X_6_5_1 + X_6_6_0 + X_6_6_1
       + X_6_7_0 + X_6_7_1 + X_6_8_0 + X_6_8_1 + X_6_9_0 + X_6_9_1  = 1
 c9:   X_7_0_0 + X_7_0_1 + X_7_1_0 + X_7_1_1 + X_7_2_0 + X_7_2_1 + X_7_3_0
       + X_7_3_1 + X_7_4_0 + X_7_4_1 + X_7_5_0 + X_7_5_1 + X_7_6_0 + X_7_6_1
       + X_7_7_0 + X_7_7_1 + X_7_8_0 + X_7_8_1 + X_7_9_0 + X_7_9_1  = 1
 c10:  - X_0_1_0 - X_0_2_0 - X_0_3_0 - X_0_4_0 - X_0_5_0 - X_0_6_0 - X_0_7_0
       - X_0_8_0 - X_0_9_0 + X_1_0_0 + X_2_0_0 + X_3_0_0 + X_4_0_0 + X_5_0_0
       + X_6_0_0 + X_7_0_0 + X_8_0_0 + X_9_0_0  = 0
 c11:  - X_0_1_1 - X_0_2_1 - X_0_3_1 - X_0_4_1 - X_0_5_1 - X_0_6_1 - X_0_7_1
       - X_0_8_1 - X_0_9_1 + X_1_0_1 + X_2_0_1 + X_3_0_1 + X_4_0_1 + X_5_0_1
       + X_6_0_1 + X_7_0_1 + X_8_0_1 + X_9_0_1  = 0
 c12:  X_0_1_0 - X_1_0_0 - X_1_2_0 - X_1_3_0 - X_1_4_0 - X_1_5_0 - X_1_6_0
       - X_1_7_0 - X_1_8_0 - X_1_9_0 + X_2_1_0 + X_3_1_0 + X_4_1_0 + X_5_1_0
       + X_6_1_0 + X_7_1_0 + X_8_1_0 + X_9_1_0  = 0
 c13:  X_0_1_1 - X_1_0_1 - X_1_2_1 - X_1_3_1 - X_1_4_1 - X_1_5_1 - X_1_6_1
       - X_1_7_1 - X_1_8_1 - X_1_9_1 + X_2_1_1 + X_3_1_1 + X_4_1_1 + X_5_1_1
       + X_6_1_1 + X_7_1_1 + X_8_1_1 + X_9_1_1  = 0
 c14:  X_0_2_0 + X_1_2_0 - X_2_0_0 - X_2_1_0 - X_2_3_0 - X_2_4_0 - X_2_5_0
       - X_2_6_0 - X_2_7_0 - X_2_8_0 - X_2_9_0 + X_3_2_0 + X_4_2_0 + X_5_2_0
       + X_6_2_0 + X_7_2_0 + X_8_2_0 + X_9_2_0  = 0
 c15:  X_0_2_1 + X_1_2_1 - X_2_0_1 - X_2_1_1 - X_2_3_1 - X_2_4_1 - X_2_5_1
       - X_2_6_1 - X_2_7_1 - X_2_8_1 - X_2_9_1 + X_3_2_1 + X_4_2_1 + X_5_2_1
       + X_6_2_1 + X_7_2_1 + X_8_2_1 + X_9_2_1  = 0
 c16:  X_0_3_0 + X_1_3_0 + X_2_3_0 - X_3_0_0 - X_3_1_0 - X_3_2_0 - X_3_4_0
       - X_3_5_0 - X_3_6_0 - X_3_7_0 - X_3_8_0 - X_3_9_0 + X_4_3_0 + X_5_3_0
       + X_6_3_0 + X_7_3_0 + X_8_3_0 + X_9_3_0  = 0
 c17:  X_0_3_1 + X_1_3_1 + X_2_3_1 - X_3_0_1 - X_3_1_1 - X_3_2_1 - X_3_4_1
       - X_3_5_1 - X_3_6_1 - X_3_7_1 - X_3_8_1 - X_3_9_1 + X_4_3_1 + X_5_3_1
       + X_6_3_1 + X_7_3_1 + X_8_3_1 + X_9_3_1  = 0
 c18:  X_0_4_0 + X_1_4_0 + X_2_4_0 + X_3_4_0 - X_4_0_0 - X_4_1_0 - X_4_2_0
       - X_4_3_0 - X_4_5_0 - X_4_6_0 - X_4_7_0 - X_4_8_0 - X_4_9_0 + X_5_4_0
       + X_6_4_0 + X_7_4_0 + X_8_4_0 + X_9_4_0  = 0
 c19:  X_0_4_1 + X_1_4_1 + X_2_4_1 + X_3_4_1 - X_4_0_1 - X_4_1_1 - X_4_2_1
       - X_4_3_1 - X_4_5_1 - X_4_6_1 - X_4_7_1 - X_4_8_1 - X_4_9_1 + X_5_4_1
       + X_6_4_1 + X_7_4_1 + X_8_4_1 + X_9_4_1  = 0
 c20:  X_0_5_0 + X_1_5_0 + X_2_5_0 + X_3_5_0 + X_4_5_0 - X_5_0_0 - X_5_1_0
       - X_5_2_0 - X_5_3_0 - X_5_4_0 - X_5_6_0 - X_5_7_0 - X_5_8_0 - X_5_9_0
       + X_6_5_0 + X_7_5_0 + X_8_5_0 + X_9_5_0  = 0
 c21:  X_0_5_1 + X_1_5_1 + X_2_5_1 + X_3_5_1 + X_4_5_1 - X_5_0_1 - X_5_1_1
       - X_5_2_1 - X_5_3_1 - X_5_4_1 - X_5_6_1 - X_5_7_1 - X_5_8_1 - X_5_9_1
       + X_6_5_1 + X_7_5_1 + X_8_5_1 + X_9_5_1  = 0
 c22:  X_0_6_0 + X_1_6_0 + X_2_6_0 + X_3_6_0 + X_4_6_0 + X_5_6_0 - X_6_0_0
       - X_6_1_0 - X_6_2_0 - X_6_3_0 - X_6_4_0 - X_6_5_0 - X_6_7_0 - X_6_8_0
       - X_6_9_0 + X_7_6_0 + X_8_6_0 + X_9_6_0  = 0
 c23:  X_0_6_1 + X_1_6_1 + X_2_6_1 + X_3_6_1 + X_4_6_1 + X_5_6_1 - X_6_0_1
       - X_6_1_1 - X_6_2_1 - X_6_3_1 - X_6_4_1 - X_6_5_1 - X_6_7_1 - X_6_8_1
       - X_6_9_1 + X_7_6_1 + X_8_6_1 + X_9_6_1  = 0
 c24:  X_0_7_0 + X_1_7_0 + X_2_7_0 + X_3_7_0 + X_4_7_0 + X_5_7_0 + X_6_7_0
       - X_7_0_0 - X_7_1_0 - X_7_2_0 - X_7_3_0 - X_7_4_0 - X_7_5_0 - X_7_6_0
       - X_7_8_0 - X_7_9_0 + X_8_7_0 + X_9_7_0  = 0
 c25:  X_0_7_1 + X_1_7_1 + X_2_7_1 + X_3_7_1 + X_4_7_1 + X_5_7_1 + X_6_7_1
       - X_7_0_1 - X_7_1_1 - X_7_2_1 - X_7_3_1 - X_7_4_1 - X_7_5_1 - X_7_6_1
       - X_7_8_1 - X_7_9_1 + X_8_7_1 + X_9_7_1  = 0
 c26:  X_0_8_0 + X_1_8_0 + X_2_8_0 + X_3_8_0 + X_4_8_0 + X_5_8_0 + X_6_8_0
       + X_7_8_0 - X_8_0_0 - X_8_1_0 - X_8_2_0 - X_8_3_0 - X_8_4_0 - X_8_5_0
       - X_8_6_0 - X_8_7_0 - X_8_9_0 + X_9_8_0  = 0
 c27:  X_0_8_1 + X_1_8_1 + X_2_8_1 + X_3_8_1 + X_4_8_1 + X_5_8_1 + X_6_8_1
       + X_7_8_1 - X_8_0_1 - X_8_1_1 - X_8_2_1 - X_8_3_1 - X_8_4_1 - X_8_5_1
       - X_8_6_1 - X_8_7_1 - X_8_9_1 + X_9_8_1  = 0
 c28:  X_0_9_0 + X_1_9_0 + X_2_9_0 + X_3_9_0 + X_4_9_0 + X_5_9_0 + X_6_9_0
       + X_7_9_0 + X_8_9_0 - X_9_0_0 - X_9_1_0 - X_9_2_0 - X_9_3_0 - X_9_4_0
       - X_9_5_0 - X_9_6_0 - X_9_7_0 - X_9_8_0  = 0
 c29:  X_0_9_1 + X_1_9_1 + X_2_9_1 + X_3_9_1 + X_4_9_1 + X_5_9_1 + X_6_9_1
       + X_7_9_1 + X_8_9_1 - X_9_0_1 - X_9_1_1 - X_9_2_1 - X_9_3_1 - X_9_4_1
       - X_9_5_1 - X_9_6_1 - X_9_7_1 - X_9_8_1  = 0
 c30:  X_0_8_0 + X_0_9_0 + X_1_8_0 + X_1_9_0 + X_2_8_0 + X_2_9_0 + X_3_8_0
       + X_3_9_0 + X_4_8_0 + X_4_9_0 + X_5_8_0 + X_5_9_0 + X_6_8_0 + X_6_9_0
       + X_7_8_0 + X_7_9_0 + X_8_8_0 + X_8_9_0 + X_9_8_0 + X_9_9_0 <= 1
 c31:  X_0_8_1 + X_0_9_1 + X_1_8_1 + X_1_9_1 + X_2_8_1 + X_2_9_1 + X_3_8_1
       + X_3_9_1 + X_4_8_1 + X_4_9_1 + X_5_8_1 + X_5_9_1 + X_6_8_1 + X_6_9_1
       + X_7_8_1 + X_7_9_1 + X_8_8_1 + X_8_9_1 + X_9_8_1 + X_9_9_1 <= 1
 c32:  10 X_0_1_0 + 10 X_0_1_1 + U_0 - U_1 <= 9
 c33:  10 X_0_2_0 + 10 X_0_2_1 + U_0 - U_2 <= 9
 c34:  10 X_0_3_0 + 10 X_0_3_1 + U_0 - U_3 <= 9
 c35:  10 X_0_4_0 + 10 X_0_4_1 + U_0 - U_4 <= 9
 c36:  10 X_0_5_0 + 10 X_0_5_1 + U_0 - U_5 <= 9
 c37:  10 X_0_6_0 + 10 X_0_6_1 + U_0 - U_6 <= 9
 c38:  10 X_0_7_0 + 10 X_0_7_1 + U_0 - U_7 <= 9
 c39:  10 X_0_8_0 + 10 X_0_8_1 + U_0 - U_8 <= 9
 c40:  10 X_0_9_0 + 10 X_0_9_1 + U_0 - U_9 <= 9
 c41:  10 X_1_0_0 + 10 X_1_0_1 - U_0 + U_1 <= 9
 c42:  10 X_1_2_0 + 10 X_1_2_1 + U_1 - U_2 <= 9
 c43:  10 X_1_3_0 + 10 X_1_3_1 + U_1 - U_3 <= 9
 c44:  10 X_1_4_0 + 10 X_1_4_1 + U_1 - U_4 <= 9
 c45:  10 X_1_5_0 + 10 X_1_5_1 + U_1 - U_5 <= 9
 c46:  10 X_1_6_0 + 10 X_1_6_1 + U_1 - U_6 <= 9
 c47:  10 X_1_7_0 + 10 X_1_7_1 + U_1 - U_7 <= 9
 c48:  10 X_1_8_0 + 10 X_1_8_1 + U_1 - U_8 <= 9
 c49:  10 X_1_9_0 + 10 X_1_9_1 + U_1 - U_9 <= 9
 c50:  10 X_2_0_0 + 10 X_2_0_1 - U_0 + U_2 <= 9
 c51:  10 X_2_1_0 + 10 X_2_1_1 - U_1 + U_2 <= 9
 c52:  10 X_2_3_0 + 10 X_2_3_1 + U_2 - U_3 <= 9
 c53:  10 X_2_4_0 + 10 X_2_4_1 + U_2 - U_4 <= 9
 c54:  10 X_2_5_0 + 10 X_2_5_1 + U_2 - U_5 <= 9
 c55:  10 X_2_6_0 + 10 X_2_6_1 + U_2 - U_6 <= 9
 c56:  10 X_2_7_0 + 10 X_2_7_1 + U_2 - U_7 <= 9
 c57:  10 X_2_8_0 + 10 X_2_8_1 + U_2 - U_8 <= 9
 c58:  10 X_2_9_0 + 10 X_2_9_1 + U_2 - U_9 <= 9
 c59:  10 X_3_0_0 + 10 X_3_0_1 - U_0 + U_3 <= 9
 c60:  10 X_3_1_0 + 10 X_3_1_1 - U_1 + U_3 <= 9
 c61:  10 X_3_2_0 + 10 X_3_2_1 - U_2 + U_3 <= 9
 c62:  10 X_3_4_0 + 10 X_3_4_1 + U_3 - U_4 <= 9
 c63:  10 X_3_5_0 + 10 X_3_5_1 + U_3 - U_5 <= 9
 c64:  10 X_3_6_0 + 10 X_3_6_1 + U_3 - U_6 <= 9
 c65:  10 X_3_7_0 + 10 X_3_7_1 + U_3 - U_7 <= 9
 c66:  10 X_3_8_0 + 10 X_3_8_1 + U_3 - U_8 <= 9
 c67:  10 X_3_9_0 + 10 X_3_9_1 + U_3 - U_9 <= 9
 c68:  10 X_4_0_0 + 10 X_4_0_1 - U_0 + U_4 <= 9
 c69:  10 X_4_1_0 + 10 X_4_1_1 - U_1 + U_4 <= 9
 c70:  10 X_4_2_0 + 10 X_4_2_1 - U_2 + U_4 <= 9
 c71:  10 X_4_3_0 + 10 X_4_3_1 - U_3 + U_4 <= 9
 c72:  10 X_4_5_0 + 10 X_4_5_1 + U_4 - U_5 <= 9
 c73:  10 X_4_6_0 + 10 X_4_6_1 + U_4 - U_6 <= 9
 c74:  10 X_4_7_0 + 10 X_4_7_1 + U_4 - U_7 <= 9
 c75:  10 X_4_8_0 + 10 X_4_8_1 + U_4 - U_8 <= 9
 c76:  10 X_4_9_0 + 10 X_4_9_1 + U_4 - U_9 <= 9
 c77:  10 X_5_0_0 + 10 X_5_0_1 - U_0 + U_5 <= 9
 c78:  10 X_5_1_0 + 10 X_5_1_1 - U_1 + U_5 <= 9
 c79:  10 X_5_2_0 + 10 X_5_2_1 - U_2 + U_5 <= 9
 c80:  10 X_5_3_0 + 10 X_5_3_1 - U_3 + U_5 <= 9
 c81:  10 X_5_4_0 + 10 X_5_4_1 - U_4 + U_5 <= 9
 c82:  10 X_5_6_0 + 10 X_5_6_1 + U_5 - U_6 <= 9
 c83:  10 X_5_7_0 + 10 X_5_7_1 + U_5 - U_7 <= 9
 c84:  10 X_5_8_0 + 10 X_5_8_1 + U_5 - U_8 <= 9
 c85:  10 X_5_9_0 + 10 X_5_9_1 + U_5 - U_9 <= 9
 c86:  10 X_6_0_0 + 10 X_6_0_1 - U_0 + U_6 <= 9
 c87:  10 X_6_1_0 + 10 X_6_1_1 - U_1 + U_6 <= 9
 c88:  10 X_6_2_0 + 10 X_6_2_1 - U_2 + U_6 <= 9
 c89:  10 X_6_3_0 + 10 X_6_3_1 - U_3 + U_6 <= 9
 c90:  10 X_6_4_0 + 10 X_6_4_1 - U_4 + U_6 <= 9
 c91:  10 X_6_5_0 + 10 X_6_5_1 - U_5 + U_6 <= 9
 c92:  10 X_6_7_0 + 10 X_6_7_1 + U_6 - U_7 <= 9
 c93:  10 X_6_8_0 + 10 X_6_8_1 + U_6 - U_8 <= 9
 c94:  10 X_6_9_0 + 10 X_6_9_1 + U_6 - U_9 <= 9
 c95:  10 X_7_0_0 + 10 X_7_0_1 - U_0 + U_7 <= 9
 c96:  10 X_7_1_0 + 10 X_7_1_1 - U_1 + U_7 <= 9
 c97:  10 X_7_2_0 + 10 X_7_2_1 - U_2 + U_7 <= 9
 c98:  10 X_7_3_0 + 10 X_7_3_1 - U_3 + U_7 <= 9
 c99:  10 X_7_4_0 + 10 X_7_4_1 - U_4 + U_7 <= 9
 c100: 10 X_7_5_0 + 10 X_7_5_1 - U_5 + U_7 <= 9
 c101: 10 X_7_6_0 + 10 X_7_6_1 - U_6 + U_7 <= 9
 c102: 10 X_7_8_0 + 10 X_7_8_1 + U_7 - U_8 <= 9
 c103: 10 X_7_9_0 + 10 X_7_9_1 + U_7 - U_9 <= 9
 c104: 10 X_8_0_0 + 10 X_8_0_1 - U_0 + U_8 <= 9
 c105: 10 X_8_1_0 + 10 X_8_1_1 - U_1 + U_8 <= 9
 c106: 10 X_8_2_0 + 10 X_8_2_1 - U_2 + U_8 <= 9
 c107: 10 X_8_3_0 + 10 X_8_3_1 - U_3 + U_8 <= 9
 c108: 10 X_8_4_0 + 10 X_8_4_1 - U_4 + U_8 <= 9
 c109: 10 X_8_5_0 + 10 X_8_5_1 - U_5 + U_8 <= 9
 c110: 10 X_8_6_0 + 10 X_8_6_1 - U_6 + U_8 <= 9
 c111: 10 X_8_7_0 + 10 X_8_7_1 - U_7 + U_8 <= 9
 c112: 10 X_8_9_0 + 10 X_8_9_1 + U_8 - U_9 <= 9
 c113: 10 X_9_0_0 + 10 X_9_0_1 - U_0 + U_9 <= 9
 c114: 10 X_9_1_0 + 10 X_9_1_1 - U_1 + U_9 <= 9
 c115: 10 X_9_2_0 + 10 X_9_2_1 - U_2 + U_9 <= 9
 c116: 10 X_9_3_0 + 10 X_9_3_1 - U_3 + U_9 <= 9
 c117: 10 X_9_4_0 + 10 X_9_4_1 - U_4 + U_9 <= 9
 c118: 10 X_9_5_0 + 10 X_9_5_1 - U_5 + U_9 <= 9
 c119: 10 X_9_6_0 + 10 X_9_6_1 - U_6 + U_9 <= 9
 c120: 10 X_9_7_0 + 10 X_9_7_1 - U_7 + U_9 <= 9
 c121: 10 X_9_8_0 + 10 X_9_8_1 - U_8 + U_9 <= 9
Bounds
 0 <= X_0_0_0 <= 1
 0 <= X_0_0_1 <= 1
 0 <= X_0_1_0 <= 1
 0 <= X_0_1_1 <= 1
 0 <= X_0_2_0 <= 1
 0 <= X_0_2_1 <= 1
 0 <= X_0_3_0 <= 1
 0 <= X_0_3_1 <= 1
 0 <= X_0_4_0 <= 1
 0 <= X_0_4_1 <= 1
 0 <= X_0_5_0 <= 1
 0 <= X_0_5_1 <= 1
 0 <= X_0_6_0 <= 1
 0 <= X_0_6_1 <= 1
 0 <= X_0_7_0 <= 1
 0 <= X_0_7_1 <= 1
 0 <= X_0_8_0 <= 1
 0 <= X_0_8_1 <= 1
 0 <= X_0_9_0 <= 1
 0 <= X_0_9_1 <= 1
 0 <= X_1_0_0 <= 1
 0 <= X_1_0_1 <= 1
 0 <= X_1_1_0 <= 1
 0 <= X_1_1_1 <= 1
 0 <= X_1_2_0 <= 1
 0 <= X_1_2_1 <= 1
 0 <= X_1_3_0 <= 1
 0 <= X_1_3_1 <= 1
 0 <= X_1_4_0 <= 1
 0 <= X_1_4_1 <= 1
 0 <= X_1_5_0 <= 1
 0 <= X_1_5_1 <= 1
 0 <= X_1_6_0 <= 1
 0 <= X_1_6_1 <= 1
 0 <= X_1_7_0 <= 1
 0 <= X_1_7_1 <= 1
 0 <= X_1_8_0 <= 1
 0 <= X_1_8_1 <= 1
 0 <= X_1_9_0 <= 1
 0 <= X_1_9_1 <= 1
 0 <= X_2_0_0 <= 1
 0 <= X_2_0_1 <= 1
 0 <= X_2_1_0 <= 1
 0 <= X_2_1_1 <= 1
 0 <= X_2_2_0 <= 1
 0 <= X_2_2_1 <= 1
 0 <= X_2_3_0 <= 1
 0 <= X_2_3_1 <= 1
 0 <= X_2_4_0 <= 1
 0 <= X_2_4_1 <= 1
 0 <= X_2_5_0 <= 1
 0 <= X_2_5_1 <= 1
 0 <= X_2_6_0 <= 1
 0 <= X_2_6_1 <= 1
 0 <= X_2_7_0 <= 1
 0 <= X_2_7_1 <= 1
 0 <= X_2_8_0 <= 1
 0 <= X_2_8_1 <= 1
 0 <= X_2_9_0 <= 1
 0 <= X_2_9_1 <= 1
 0 <= X_3_0_0 <= 1
 0 <= X_3_0_1 <= 1
 0 <= X_3_1_0 <= 1
 0 <= X_3_1_1 <= 1
 0 <= X_3_2_0 <= 1
 0 <= X_3_2_1 <= 1
 0 <= X_3_3_0 <= 1
 0 <= X_3_3_1 <= 1
 0 <= X_3_4_0 <= 1
 0 <= X_3_4_1 <= 1
 0 <= X_3_5_0 <= 1
 0 <= X_3_5_1 <= 1
 0 <= X_3_6_0 <= 1
 0 <= X_3_6_1 <= 1
 0 <= X_3_7_0 <= 1
 0 <= X_3_7_1 <= 1
 0 <= X_3_8_0 <= 1
 0 <= X_3_8_1 <= 1
 0 <= X_3_9_0 <= 1
 0 <= X_3_9_1 <= 1
 0 <= X_4_0_0 <= 1
 0 <= X_4_0_1 <= 1
 0 <= X_4_1_0 <= 1
 0 <= X_4_1_1 <= 1
 0 <= X_4_2_0 <= 1
 0 <= X_4_2_1 <= 1
 0 <= X_4_3_0 <= 1
 0 <= X_4_3_1 <= 1
 0 <= X_4_4_0 <= 1
 0 <= X_4_4_1 <= 1
 0 <= X_4_5_0 <= 1
 0 <= X_4_5_1 <= 1
 0 <= X_4_6_0 <= 1
 0 <= X_4_6_1 <= 1
 0 <= X_4_7_0 <= 1
 0 <= X_4_7_1 <= 1
 0 <= X_4_8_0 <= 1
 0 <= X_4_8_1 <= 1
 0 <= X_4_9_0 <= 1
 0 <= X_4_9_1 <= 1
 0 <= X_5_0_0 <= 1
 0 <= X_5_0_1 <= 1
 0 <= X_5_1_0 <= 1
 0 <= X_5_1_1 <= 1
 0 <= X_5_2_0 <= 1
 0 <= X_5_2_1 <= 1
 0 <= X_5_3_0 <= 1
 0 <= X_5_3_1 <= 1
 0 <= X_5_4_0 <= 1
 0 <= X_5_4_1 <= 1
 0 <= X_5_5_0 <= 1
 0 <= X_5_5_1 <= 1
 0 <= X_5_6_0 <= 1
 0 <= X_5_6_1 <= 1
 0 <= X_5_7_0 <= 1
 0 <= X_5_7_1 <= 1
 0 <= X_5_8_0 <= 1
 0 <= X_5_8_1 <= 1
 0 <= X_5_9_0 <= 1
 0 <= X_5_9_1 <= 1
 0 <= X_6_0_0 <= 1
 0 <= X_6_0_1 <= 1
 0 <= X_6_1_0 <= 1
 0 <= X_6_1_1 <= 1
 0 <= X_6_2_0 <= 1
 0 <= X_6_2_1 <= 1
 0 <= X_6_3_0 <= 1
 0 <= X_6_3_1 <= 1
 0 <= X_6_4_0 <= 1
 0 <= X_6_4_1 <= 1
 0 <= X_6_5_0 <= 1
 0 <= X_6_5_1 <= 1
 0 <= X_6_6_0 <= 1
 0 <= X_6_6_1 <= 1
 0 <= X_6_7_0 <= 1
 0 <= X_6_7_1 <= 1
 0 <= X_6_8_0 <= 1
 0 <= X_6_8_1 <= 1
 0 <= X_6_9_0 <= 1
 0 <= X_6_9_1 <= 1
 0 <= X_7_0_0 <= 1
 0 <= X_7_0_1 <= 1
 0 <= X_7_1_0 <= 1
 0 <= X_7_1_1 <= 1
 0 <= X_7_2_0 <= 1
 0 <= X_7_2_1 <= 1
 0 <= X_7_3_0 <= 1
 0 <= X_7_3_1 <= 1
 0 <= X_7_4_0 <= 1
 0 <= X_7_4_1 <= 1
 0 <= X_7_5_0 <= 1
 0 <= X_7_5_1 <= 1
 0 <= X_7_6_0 <= 1
 0 <= X_7_6_1 <= 1
 0 <= X_7_7_0 <= 1
 0 <= X_7_7_1 <= 1
 0 <= X_7_8_0 <= 1
 0 <= X_7_8_1 <= 1
 0 <= X_7_9_0 <= 1
 0 <= X_7_9_1 <= 1
 0 <= X_8_0_0 <= 1
 0 <= X_8_0_1 <= 1
 0 <= X_8_1_0 <= 1
 0 <= X_8_1_1 <= 1
 0 <= X_8_2_0 <= 1
 0 <= X_8_2_1 <= 1
 0 <= X_8_3_0 <= 1
 0 <= X_8_3_1 <= 1
 0 <= X_8_4_0 <= 1
 0 <= X_8_4_1 <= 1
 0 <= X_8_5_0 <= 1
 0 <= X_8_5_1 <= 1
 0 <= X_8_6_0 <= 1
 0 <= X_8_6_1 <= 1
 0 <= X_8_7_0 <= 1
 0 <= X_8_7_1 <= 1
 0 <= X_8_8_0 <= 1
 0 <= X_8_8_1 <= 1
 0 <= X_8_9_0 <= 1
 0 <= X_8_9_1 <= 1
 0 <= X_9_0_0 <= 1
 0 <= X_9_0_1 <= 1
 0 <= X_9_1_0 <= 1
 0 <= X_9_1_1 <= 1
 0 <= X_9_2_0 <= 1
 0 <= X_9_2_1 <= 1
 0 <= X_9_3_0 <= 1
 0 <= X_9_3_1 <= 1
 0 <= X_9_4_0 <= 1
 0 <= X_9_4_1 <= 1
 0 <= X_9_5_0 <= 1
 0 <= X_9_5_1 <= 1
 0 <= X_9_6_0 <= 1
 0 <= X_9_6_1 <= 1
 0 <= X_9_7_0 <= 1
 0 <= X_9_7_1 <= 1
 0 <= X_9_8_0 <= 1
 0 <= X_9_8_1 <= 1
 0 <= X_9_9_0 <= 1
 0 <= X_9_9_1 <= 1
 0 <= N_8 <= 1
 0 <= N_9 <= 1
Generals
 X_0_0_0  X_0_0_1  X_0_1_0  X_0_1_1  X_0_2_0  X_0_2_1  X_0_3_0  X_0_3_1 
 X_0_4_0  X_0_4_1  X_0_5_0  X_0_5_1  X_0_6_0  X_0_6_1  X_0_7_0  X_0_7_1 
 X_0_8_0  X_0_8_1  X_0_9_0  X_0_9_1  X_1_0_0  X_1_0_1  X_1_1_0  X_1_1_1 
 X_1_2_0  X_1_2_1  X_1_3_0  X_1_3_1  X_1_4_0  X_1_4_1  X_1_5_0  X_1_5_1 
 X_1_6_0  X_1_6_1  X_1_7_0  X_1_7_1  X_1_8_0  X_1_8_1  X_1_9_0  X_1_9_1 
 X_2_0_0  X_2_0_1  X_2_1_0  X_2_1_1  X_2_2_0  X_2_2_1  X_2_3_0  X_2_3_1 
 X_2_4_0  X_2_4_1  X_2_5_0  X_2_5_1  X_2_6_0  X_2_6_1  X_2_7_0  X_2_7_1 
 X_2_8_0  X_2_8_1  X_2_9_0  X_2_9_1  X_3_0_0  X_3_0_1  X_3_1_0  X_3_1_1 
 X_3_2_0  X_3_2_1  X_3_3_0  X_3_3_1  X_3_4_0  X_3_4_1  X_3_5_0  X_3_5_1 
 X_3_6_0  X_3_6_1  X_3_7_0  X_3_7_1  X_3_8_0  X_3_8_1  X_3_9_0  X_3_9_1 
 X_4_0_0  X_4_0_1  X_4_1_0  X_4_1_1  X_4_2_0  X_4_2_1  X_4_3_0  X_4_3_1 
 X_4_4_0  X_4_4_1  X_4_5_0  X_4_5_1  X_4_6_0  X_4_6_1  X_4_7_0  X_4_7_1 
 X_4_8_0  X_4_8_1  X_4_9_0  X_4_9_1  X_5_0_0  X_5_0_1  X_5_1_0  X_5_1_1 
 X_5_2_0  X_5_2_1  X_5_3_0  X_5_3_1  X_5_4_0  X_5_4_1  X_5_5_0  X_5_5_1 
 X_5_6_0  X_5_6_1  X_5_7_0  X_5_7_1  X_5_8_0  X_5_8_1  X_5_9_0  X_5_9_1 
 X_6_0_0  X_6_0_1  X_6_1_0  X_6_1_1  X_6_2_0  X_6_2_1  X_6_3_0  X_6_3_1 
 X_6_4_0  X_6_4_1  X_6_5_0  X_6_5_1  X_6_6_0  X_6_6_1  X_6_7_0  X_6_7_1 
 X_6_8_0  X_6_8_1  X_6_9_0  X_6_9_1  X_7_0_0  X_7_0_1  X_7_1_0  X_7_1_1 
 X_7_2_0  X_7_2_1  X_7_3_0  X_7_3_1  X_7_4_0  X_7_4_1  X_7_5_0  X_7_5_1 
 X_7_6_0  X_7_6_1  X_7_7_0  X_7_7_1  X_7_8_0  X_7_8_1  X_7_9_0  X_7_9_1 
 X_8_0_0  X_8_0_1  X_8_1_0  X_8_1_1  X_8_2_0  X_8_2_1  X_8_3_0  X_8_3_1 
 X_8_4_0  X_8_4_1  X_8_5_0  X_8_5_1  X_8_6_0  X_8_6_1  X_8_7_0  X_8_7_1 
 X_8_8_0  X_8_8_1  X_8_9_0  X_8_9_1  X_9_0_0  X_9_0_1  X_9_1_0  X_9_1_1 
 X_9_2_0  X_9_2_1  X_9_3_0  X_9_3_1  X_9_4_0  X_9_4_1  X_9_5_0  X_9_5_1 
 X_9_6_0  X_9_6_1  X_9_7_0  X_9_7_1  X_9_8_0  X_9_8_1  X_9_9_0  X_9_9_1  N_8 
 N_9 
End
